40
    37    71    18    74    62    92    61    59    73    63     7    63    72    48    60    62    90    62     2    38    88    75    94    73    51     9    74    54    96    39    61    71    65    95    48    15    31    57     9    84
     1     7     6     6     8     6     2     5     9     6     2     6    10     9     3     1     6     9     5     5    10     7     1     4     4     2    10     4     8     6     2     3     1     9     1    10    10     5     5     3
   655   263   510   495   668   392   574   325   588   554   666   634   397   356   649   241   429   290   687   533   410   686   402   633   562   431   548   601   643   521   332   267   586   482   466   600   468   541   489   247
